NAME = AISearchfile180,
TOURSIZE = 180,
LENGTH = 519860,
29,142,22,35,126,19,79,172,154,150,139,104,21,87,163,105,121,2,148,31,9,68,145,47,165,32,30,144,54,156,99,175,51,83,136,170,122,72,173,162,130,23,119,109,100,138,112,128,37,39,66,59,166,96,57,8,49,135,62,44,116,75,13,88,11,7,10,25,132,141,45,71,97,161,33,78,168,147,117,178,61,58,140,153,120,113,158,73,95,63,17,129,20,67,180,149,36,115,65,92,46,179,157,1,152,64,86,94,6,18,41,171,85,38,146,176,91,40,123,15,5,143,70,74,14,52,169,28,84,134,125,98,133,60,4,76,110,177,24,137,12,81,82,107,69,3,89,50,16,108,56,27,167,93,26,159,43,101,124,80,118,160,111,34,102,131,55,48,174,42,90,77,114,103,53,151,155,127,164,106